1 2 3 4 5 6 7 8 9 10
21 22 23 24 25 26 27 28 29 30
41 42 43 44 45 46 47 48 49 50
61 62 63 64 65 66 67 68 69 70
81 82 83 84 85 86 87 88 89 90
101 102 103 104 105 106 107 108 109 110
121 122 123 124 125 126 127 128 129 130
141 142 143 144 145 146 147 148 149 150
161 162 163 164 165 166 167 168 169 170
181 182 183 184 185 186 187 188 189 190
201 202 203 204 205 206 207 208 209 210
221 222 223 224 225 226 227 228 229 230
241 242 243 244 245 246 247 248 249 250
261 262 263 264 265 266 267 268 269 270
281 282 283 284 285 286 287 288 289 290
301 302 303 304 305 306 307 308 309 310
321 322 323 324 325 326 327 328 329 330
341 342 343 344 345 346 347 348 349 350
361 362 363 364 365 366 367 368 369 370
381 382 383 384 385 386 387 388 389 390
401 402 403 404 405 406 407 408 409 410
421 422 423 424 425 426 427 428 429 430
441 442 443 444 445 446 447 448 449 450
461 462 463 464 465 466 467 468 469 470
461 462 463 464 465 466 467 468 469 470
